! Solving for graph ../../../benchmarks/abp/O-impcol_d.mtx.rnd
! Target value is set to 120
 ! --------------------------------------------------- CP Optimizer 22.2.0.0 --
 ! Minimization problem - 426 variables, 1693 constraints, 1 phase
 ! TimeLimit            = 1800
 ! LogVerbosity         = Terse
 ! Initial process time : 0.02s (0.02s extraction + 0.00s propagation)
 !  . Log search space  : 3719.1 (before), 3719.1 (after)
 !  . Memory usage      : 848.0 kB (before), 848.0 kB (after)
 ! Using parallel search with 8 workers.
 ! ----------------------------------------------------------------------------
 !          Best Branches  Non-fixed    W       Branch decision
                        0        426                 -
 + New bound is 121
                        2        425    1   F     1 != _int245
 + New bound is 122
 ! ----------------------------------------------------------------------------
 ! Search terminated by limit, no solution found.
 ! Best bound             : 122
 ! ----------------------------------------------------------------------------
 ! Number of branches     : 170697827
 ! Number of fails        : 80421021
 ! Total memory usage     : 655.4 MB (654.7 MB CP Optimizer + 0.7 MB Concert)
 ! Time spent in solve    : 1800.03s (1800.02s engine + 0.02s extraction)
 ! Search speed (br. / s) : 94831.6
 ! ----------------------------------------------------------------------------
! --------------------------------------------------------
! No solution
! --------------------------------------------------------
